00:00.0 clingo version 5.5.1
00:00.0 Reading from ...ols/../encodings/CTW_nat_optimal_V2.lp ...
30:00.386 UNKNOWN
30:00.469 
30:00.469 TIME LIMIT   : 1
30:00.474 Models       : 0+
30:00.474 Calls        : 1
30:00.476 Time         : 1800.125s (Solving: 0.00s 1st Model: 0.00s Unsat: 0.00s)
30:00.477 CPU Time     : 112.207s
